problems/csplib-prob110/ArmiesOfQueens-models/noch/O2/lingeling/model_2_1-05-solution000001.solution
language Essence 1.3

letting black be {(1, 1), (1, 5), (3, 1), (3, 5)}
$ Here is a simple "visualisation" for the value above.
$ 1 1
$ 1 5
$ 3 1
$ 3 5

letting white be {(2, 3), (4, 3), (5, 2), (5, 4)}
$ Here is a simple "visualisation" for the value above.
$ 2 3
$ 4 3
$ 5 2
$ 5 4

